p tw 78 89
1 2
2 13
3 4
4 5
5 6
6 7
7 8
8 9
9 10
10 11
10 5
11 12
12 14
13 24
14 15
15 20
16 17
17 18
18 19
19 20
20 21
21 22
22 23
23 25
24 35
24 16
25 26
26 27
27 28
27 41
28 29
29 30
29 36
30 31
31 32
32 33
33 34
33 36
34 75
35 46
36 37
37 38
38 39
39 40
40 75
41 42
42 43
42 61
43 44
44 45
45 47
46 57
46 68
47 48
48 49
49 50
49 55
50 51
51 52
52 53
53 54
53 55
54 75
55 56
56 58
57 75
58 59
59 60
59 45
60 75
61 62
62 63
63 64
64 65
65 66
66 67
67 69
67 70
68 77
69 75
70 71
71 72
72 73
73 74
73 63
74 75
75 76
77 78
78 3
